Route 1: 0 78 27 92 87 26 70 0
Route 2: 0 86 52 89 41 91 22 1 33 96 37 65 38 0
Route 3: 0 68 85 31 11 5 83 84 76 0
Route 4: 0 55 71 90 45 82 63 20 4 0
Route 5: 0 9 75 62 81 93 77 0
Route 6: 0 74 57 97 36 46 48 25 32 40 12 17 54 0
Route 7: 0 35 51 21 2 43 80 73 15 3 0
Route 8: 0 23 66 53 34 18 19 7 30 0
Route 9: 0 95 94 44 10 67 8 49 99 29 60 47 28 0
Route 10: 0 16 13 24 6 98 42 69 79 56 72 0
Route 11: 0 64 39 100 50 59 61 58 14 88 0
